(declare-fun temp44370_1 () (_ BitVec 64))
(declare-fun temp44370_2 () (_ BitVec 64))
(declare-fun var77740 () (_ BitVec 64))
(declare-fun k!0 () Bool)
(declare-fun ARGNAME_filter_NAMEEND_DIM () (_ BitVec 64))
(declare-fun ARGNAME_data_format_NAMEEND_STRFMT () (_ BitVec 64))
(declare-fun temp44370_3 () (_ BitVec 64))
(declare-fun ARGNAME_out_backprop_NAMEEND_DIM () (_ BitVec 64))
(declare-fun var77770 () (_ BitVec 64))
(declare-fun temp44370_4 () (_ BitVec 64))
(declare-fun temp44370_5 () (_ BitVec 64))
(declare-fun ARGNAME_filter_NAMEEND_DIMSIZE
             ()
             (Array (_ BitVec 64) (_ BitVec 64)))
(declare-fun temp44370_6 () (_ BitVec 64))
(declare-fun temp44370_7 () (_ BitVec 64))
(declare-fun temp44370_8 () (_ BitVec 64))
(declare-fun temp44370_9 () (_ BitVec 64))
(declare-fun temp44370_10 () (_ BitVec 64))
(declare-fun temp44370_11 () (_ BitVec 64))
(declare-fun temp44370_12 () (_ BitVec 64))
(declare-fun temp44370_13 () (_ BitVec 64))
(declare-fun temp44370_14 () (_ BitVec 64))
(declare-fun temp44370_15 () (_ BitVec 64))
(declare-fun temp44370_16 () (_ BitVec 64))
(declare-fun temp44370_17 () (_ BitVec 64))
(declare-fun temp44370_18 () (_ BitVec 64))
(declare-fun var77799 () (_ BitVec 64))
(declare-fun temp44370_19 () (_ BitVec 64))
(declare-fun ARGNAME_out_backprop_NAMEEND_DIMSIZE
             ()
             (Array (_ BitVec 64) (_ BitVec 64)))
(declare-fun temp44370_20 () (_ BitVec 64))
(declare-fun temp44370_21 () (_ BitVec 64))
(declare-fun temp44370_22 () (_ BitVec 64))
(declare-fun temp44370_23 () (_ BitVec 64))
(declare-fun temp44370_24 () (_ BitVec 64))
(declare-fun temp44370_25 () (_ BitVec 64))
(declare-fun temp44370_26 () (_ BitVec 64))
(declare-fun temp44370_27 () (_ BitVec 64))
(declare-fun temp44370_28 () (_ BitVec 64))
(declare-fun temp44370_29 () (_ BitVec 64))
(declare-fun temp44370_30 () (_ BitVec 64))
(declare-fun temp44370_31 () (_ BitVec 64))
(declare-fun temp44370_32 () (_ BitVec 64))
(declare-fun var77832 () (_ BitVec 64))
(declare-fun temp44370_33 () (_ BitVec 64))
(declare-fun temp44370_34 () (_ BitVec 64))
(declare-fun var77833 () (_ BitVec 64))
(declare-fun var77834 () (_ BitVec 64))
(declare-fun temp44370_35 () (_ BitVec 64))
(declare-fun temp44370_36 () (_ BitVec 64))
(declare-fun var275510 () (_ BitVec 64))
(declare-fun temp44370_37 () (_ BitVec 64))
(declare-fun var275528 () (_ BitVec 64))
(declare-fun temp44370_38 () (_ BitVec 64))
(declare-fun temp44370_40 () (_ BitVec 64))
(declare-fun temp44370_39 () (_ BitVec 64))
(declare-fun temp44370_42 () (_ BitVec 64))
(declare-fun temp44370_41 () (_ BitVec 64))
(declare-fun temp44370_43 () (_ BitVec 64))
(declare-fun var406582 () (_ BitVec 64))
(declare-fun temp44370_44 () (_ BitVec 64))
(declare-fun var406600 () (_ BitVec 64))
(declare-fun temp44370_45 () (_ BitVec 64))
(declare-fun temp44370_46 () (_ BitVec 64))
(declare-fun var537654 () (_ BitVec 64))
(declare-fun temp44370_47 () (_ BitVec 64))
(declare-fun var537672 () (_ BitVec 64))
(declare-fun temp44370_48 () (_ BitVec 64))
(declare-fun temp44370_50 () (_ BitVec 64))
(declare-fun temp44370_49 () (_ BitVec 64))
(declare-fun temp44370_52 () (_ BitVec 64))
(declare-fun temp44370_51 () (_ BitVec 64))
(declare-fun temp44370_54 () (_ BitVec 64))
(declare-fun temp44370_53 () (_ BitVec 64))
(declare-fun temp44370_56 () (_ BitVec 64))
(declare-fun temp44370_55 () (_ BitVec 64))
(declare-fun temp44370_57 () (_ BitVec 64))
(declare-fun var861259 () (_ BitVec 64))
(declare-fun var861238 () (_ BitVec 64))
(declare-fun var730144 () (_ BitVec 64))
(declare-fun temp44370_58 () (_ BitVec 64))
(declare-fun temp44370_59 () (_ BitVec 64))
(declare-fun var926795 () (_ BitVec 64))
(declare-fun var926774 () (_ BitVec 64))
(declare-fun var730147 () (_ BitVec 64))
(declare-fun temp44370_60 () (_ BitVec 64))
(declare-fun temp44370_62 () (_ BitVec 64))
(declare-fun temp44370_61 () (_ BitVec 64))
(declare-fun temp44370_64 () (_ BitVec 64))
(declare-fun temp44370_63 () (_ BitVec 64))
(declare-fun temp44370_66 () (_ BitVec 64))
(declare-fun temp44370_65 () (_ BitVec 64))
(declare-fun temp44370_67 () (_ BitVec 64))
(declare-fun var1057842 () (_ BitVec 64))
(declare-fun temp44370_68 () (_ BitVec 64))
(declare-fun var1057843 () (_ BitVec 64))
(declare-fun var1057844 () (_ BitVec 64))
(declare-fun var1057840 () (_ BitVec 64))
(declare-fun var664540 () (_ BitVec 64))
(declare-fun temp44370_69 () (_ BitVec 64))
(declare-fun var1123378 () (_ BitVec 64))
(declare-fun temp44370_70 () (_ BitVec 64))
(declare-fun var1123379 () (_ BitVec 64))
(declare-fun var1123380 () (_ BitVec 64))
(declare-fun var1123376 () (_ BitVec 64))
(declare-fun var664547 () (_ BitVec 64))
(declare-fun temp44370_71 () (_ BitVec 64))
(declare-fun var1188914 () (_ BitVec 64))
(declare-fun temp44370_72 () (_ BitVec 64))
(declare-fun var1188915 () (_ BitVec 64))
(declare-fun var1188916 () (_ BitVec 64))
(declare-fun var1188912 () (_ BitVec 64))
(declare-fun var664552 () (_ BitVec 64))
(declare-fun var78095 () (_ BitVec 64))
(declare-fun temp44370_73 () (_ BitVec 64))
(declare-fun temp44370_74 () (_ BitVec 64))
(declare-fun var78184 () (_ BitVec 64))
(assert (or (= ARGNAME_data_format_NAMEEND_STRFMT #x0000000000000000)
    (= ARGNAME_data_format_NAMEEND_STRFMT #x0000000000000001)
    (= ARGNAME_data_format_NAMEEND_STRFMT #x0000000000000002)
    (= ARGNAME_data_format_NAMEEND_STRFMT #x0000000000000003)
    (= ARGNAME_data_format_NAMEEND_STRFMT #x0000000000000004)
    (= ARGNAME_data_format_NAMEEND_STRFMT #x0000000000000005)))
(assert (= temp44370_1 #x0000000000000005))
(assert (= var77740
   (ite (= ARGNAME_filter_NAMEEND_DIM temp44370_1)
        #x0000000000000001
        #x0000000000000000)))
(assert (= temp44370_2 #x0000000000000001))
(assert (= var77740 temp44370_2))
(assert (= temp44370_3 #x0000000000000005))
(assert (= var77770
   (ite (= ARGNAME_out_backprop_NAMEEND_DIM temp44370_3)
        #x0000000000000001
        #x0000000000000000)))
(assert (= temp44370_4 #x0000000000000001))
(assert (= var77770 temp44370_4))
(assert (= temp44370_5 #x0000000000000000))
(assert (= temp44370_6 (select ARGNAME_filter_NAMEEND_DIMSIZE temp44370_5)))
(assert (= temp44370_7 #x0000000000000001))
(assert (= temp44370_8 (select ARGNAME_filter_NAMEEND_DIMSIZE temp44370_7)))
(assert (= temp44370_9 #x0000000000000002))
(assert (= temp44370_10 (select ARGNAME_filter_NAMEEND_DIMSIZE temp44370_9)))
(assert (= temp44370_11 #x0000000000000003))
(assert (= temp44370_12 (select ARGNAME_filter_NAMEEND_DIMSIZE temp44370_11)))
(assert (= temp44370_13 #x0000000000000004))
(assert (= temp44370_14 (select ARGNAME_filter_NAMEEND_DIMSIZE temp44370_13)))
(assert (= temp44370_15 #x0000000000000005))
(assert (= temp44370_16 (select ARGNAME_filter_NAMEEND_DIMSIZE temp44370_15)))
(assert (= temp44370_17 #x0000000000000003))
(assert (= temp44370_18 (select ARGNAME_filter_NAMEEND_DIMSIZE temp44370_17)))
(assert (= var77799 temp44370_18))
(assert (= temp44370_19 #x0000000000000000))
(assert (= temp44370_20 (select ARGNAME_out_backprop_NAMEEND_DIMSIZE temp44370_19)))
(assert (= temp44370_21 #x0000000000000001))
(assert (= temp44370_22 (select ARGNAME_out_backprop_NAMEEND_DIMSIZE temp44370_21)))
(assert (= temp44370_23 #x0000000000000002))
(assert (= temp44370_24 (select ARGNAME_out_backprop_NAMEEND_DIMSIZE temp44370_23)))
(assert (= temp44370_25 #x0000000000000003))
(assert (= temp44370_26 (select ARGNAME_out_backprop_NAMEEND_DIMSIZE temp44370_25)))
(assert (= temp44370_27 #x0000000000000004))
(assert (= temp44370_28 (select ARGNAME_out_backprop_NAMEEND_DIMSIZE temp44370_27)))
(assert (= temp44370_29 #x0000000000000005))
(assert (= temp44370_30 (select ARGNAME_out_backprop_NAMEEND_DIMSIZE temp44370_29)))
(assert (= temp44370_31 #x0000000000000004))
(assert (= temp44370_32 (select ARGNAME_out_backprop_NAMEEND_DIMSIZE temp44370_31)))
(assert (= var77832 temp44370_32))
(assert (= temp44370_33 #x0000000000000004))
(assert (= temp44370_34 (select ARGNAME_filter_NAMEEND_DIMSIZE temp44370_33)))
(assert (= var77833 temp44370_34))
(assert (= var77834 (ite (= var77832 var77833) #x0000000000000001 #x0000000000000000)))
(assert (= temp44370_35 #x0000000000000001))
(assert (= var77834 temp44370_35))
(assert (= temp44370_36 #x0000000000000001))
(assert (= var275510 temp44370_36))
(assert (= temp44370_37 #x0000000000000001))
(assert (= var275528
   (ite (bvslt var275510 temp44370_37) #x0000000000000001 #x0000000000000000)))
(assert (= temp44370_38 #x0000000000000000))
(assert (= var275528 temp44370_38))
(assert (= temp44370_40 #x0000000000000000))
(assert (= temp44370_39 temp44370_40))
(assert (= temp44370_42 #x0000000000000000))
(assert (= temp44370_41 temp44370_42))
(assert (= temp44370_43 #x0000000000000001))
(assert (= var406582 temp44370_43))
(assert (= temp44370_44 #x0000000000000001))
(assert (= var406600
   (ite (bvslt var406582 temp44370_44) #x0000000000000001 #x0000000000000000)))
(assert (= temp44370_45 #x0000000000000000))
(assert (= var406600 temp44370_45))
(assert (= temp44370_46 #x0000000000000001))
(assert (= var537654 temp44370_46))
(assert (= temp44370_47 #x0000000000000001))
(assert (= var537672
   (ite (bvslt var537654 temp44370_47) #x0000000000000001 #x0000000000000000)))
(assert (= temp44370_48 #x0000000000000000))
(assert (= var537672 temp44370_48))
(assert (= temp44370_50 #x0000000000000000))
(assert (= temp44370_49 temp44370_50))
(assert (= temp44370_52 #x00000000000000ff))
(assert (= temp44370_51 temp44370_52))
(assert (= temp44370_54 #x00000000000000ff))
(assert (= temp44370_53 temp44370_54))
(assert (= temp44370_56 #x00000000000000ff))
(assert (= temp44370_55 temp44370_56))
(assert (= temp44370_57 #x0000000000000000))
(assert (= var861259 temp44370_57))
(assert (= var861238 var861259))
(assert (= var730144 var861238))
(assert (= temp44370_58 #x0000000000000000))
(assert (= var730144 temp44370_58))
(assert (= temp44370_59 #x0000000000000000))
(assert (= var926795 temp44370_59))
(assert (= var926774 var926795))
(assert (= var730147 var926774))
(assert (= temp44370_60 #x0000000000000000))
(assert (= var730147 temp44370_60))
(assert (= temp44370_62 #x0000000000000000))
(assert (= temp44370_61 temp44370_62))
(assert (= temp44370_64 #x0000000000000000))
(assert (= temp44370_63 temp44370_64))
(assert (= temp44370_66 #x0000000000000000))
(assert (= temp44370_65 temp44370_66))
(assert (= temp44370_67 #x0000000000008000))
(assert (= var1057842 temp44370_67))
(assert (= temp44370_68 #x0000000000000001))
(assert (= var1057843
   (ite (bvslt temp44370_65 temp44370_68) #x0000000000000001 #x0000000000000000)))
(assert (= var1057844 (ite (= var1057843 #x0000000000000001) var1057842 temp44370_65)))
(assert (= var1057840 var1057844))
(assert (= var664540 var1057840))
(assert (= temp44370_69 #x0000000000040000))
(assert (= var1123378 temp44370_69))
(assert (= temp44370_70 #x0000000000000001))
(assert (= var1123379
   (ite (bvslt temp44370_63 temp44370_70) #x0000000000000001 #x0000000000000000)))
(assert (= var1123380 (ite (= var1123379 #x0000000000000001) var1123378 temp44370_63)))
(assert (= var1123376 var1123380))
(assert (= var664547 var1123376))
(assert (= temp44370_71 #x0000000000200000))
(assert (= var1188914 temp44370_71))
(assert (= temp44370_72 #x0000000000000001))
(assert (= var1188915
   (ite (bvslt temp44370_61 temp44370_72) #x0000000000000001 #x0000000000000000)))
(assert (= var1188916 (ite (= var1188915 #x0000000000000001) var1188914 temp44370_61)))
(assert (= var1188912 var1188916))
(assert (= var664552 var1188912))
(assert (= var78095 var664552))
(assert (= temp44370_73 #x0000000000000003))
(assert (= temp44370_74 #x0000000000000001))
(assert (= var78184 temp44370_74))
(model-add temp44370_1 () (_ BitVec 64) #x0000000000000005)
(model-add temp44370_2 () (_ BitVec 64) #x0000000000000001)
(model-add var77740 () (_ BitVec 64) #x0000000000000001)
(model-del k!0)
(model-add ARGNAME_filter_NAMEEND_DIM
           ()
           (_ BitVec 64)
           (ite k!0 #x0000000000000005 (bvnot #x0000000000000005)))


